Route #1: 102 89 66 14 110 39 41 105 139 88 74 34
Route #2: 1
Route #3: 23 40
Route #4: 9 60 28
Route #5: 141 29 99 106 35 32 67 150 92 86
Route #6: 15 125 5 109 123 113
Route #7: 136 79 24 80 61
Route #8: 107 62 101 30 78 120
Route #9: 13
Route #10: 27 129 49 145 144 47 87 149 131 65
Route #11: 111 147 83 71 36 57 53 42 21
Route #12: 7 84 11
Route #13: 16 58 69
Route #14: 6 38 75 115
Route #15: 17 134
Route #16: 25
Route #17: 26 112 121 93 138 68
Route #18: 143 2 55 73 77 128 37 63 33 146
Route #19: 142 54 44 103 20 85 50 148 98 48
Route #20: 72 56 43 151 118 97 18 114 81
Route #21: 4
Route #22: 3 59 122 51
Route #23: 10
Route #24: 94 108 46 133 19 116
Route #25: 152 12 126 119 31 140
Route #26: 52 91 70 100 137 22 96 132 127 76 135 90
Route #27: 117 45 8 130 124 104 64 82 95
Cost 26358
